180
0 169 31 176 172 47 144 51 82 26 
104 152 74 164 116 102 113 145 147 18 
85 118 179 90 70 84 177 171 151 63 
36 110 99 4 49 54 91 89 79 2 
153 44 21 143 59 28 94 155 125 120 
167 41 39 157 127 77 170 69 119 114 
133 78 62 83 140 160 67 98 141 34 
100 86 65 159 5 124 14 13 32 48 
95 108 22 161 138 71 87 40 55 178 
105 97 158 23 46 50 126 174 60 73 
37 135 134 132 43 166 35 128 42 12 
103 107 92 168 25 19 96 24 156 75 
72 8 6 81 68 58 64 154 20 10 
80 112 38 129 33 148 101 163 17 149 
93 57 165 16 130 111 66 29 123 56 
146 136 27 121 7 115 162 76 109 52 
131 106 142 53 9 122 15 175 117 137 
1 139 88 11 45 173 30 3 150 61 
